CMD:
./solvers/bin/cadical --plain --no-reduce -t 1600 ./data/cnfs//qspiflash_qflexpress_divfive-p139/qspiflash_qflexpress_divfive-p139.54.cnf

c --- [ banner ] -------------------------------------------------------------
c 
c CaDiCaL SAT Solver
c Copyright (c) 2016-2024
c A. Biere, M. Fleury, N. Froleyks, K. Fazekas, F. Pollitt, T. Faller
c JKU Linz, University of Freiburg, TU Wien
c 
c Version 2.1.3 5296d3d2a9bf48c154ab2acb5e44625776d821bf
c g++ (Gentoo 12.3.1_p20230526 p2) 12.3.1 20230526 -Wall -Wextra -O3 -DNDEBUG
c Sat Aug 9 07:26:21 PDT 2025 Linux cedar2.int.cedar.computecanada.ca 5.14.0-362.24.2.el9_3.x86_64 x86_64
c 
c --- [ limit ] --------------------------------------------------------------
c 
c setting time limit to 1600 seconds real time (due to '-t 1600')
c 
c --- [ parsing input ] ------------------------------------------------------
c 
c reading DIMACS file from './data/cnfs//qspiflash_qflexpress_divfive-p139/qspiflash_qflexpress_divfive-p139.54.cnf'
c opening file to read './data/cnfs//qspiflash_qflexpress_divfive-p139/qspiflash_qflexpress_divfive-p139.54.cnf'
c found 'p cnf 144755 421749' header
c parsed 421749 clauses in 0.06 seconds process time
c 
c --- [ options ] ------------------------------------------------------------
c 
c   --compact=false                (different from default 'true')
c   --decompose=false              (different from default 'true')
c   --deduplicate=false            (different from default 'true')
c   --elim=false                   (different from default 'true')
c   --probe=false                  (different from default 'true')
c   --reduce=false                 (different from default 'true')
c   --subsume=false                (different from default 'true')
c   --ternary=false                (different from default 'true')
c   --transred=false               (different from default 'true')
c   --vivify=false                 (different from default 'true')
c 
c --- [ solving ] ------------------------------------------------------------
c 
c time measured in process time since initialization
c 
c  seconds  reductions  redundant  irredundant
c         MB    restarts       trail       variables
c          level   conflicts       glue          remaining
c 
c *  0.06 68  0 0   0    0    0  0% 0 407253 136047 94%
c {  0.09 70  0 0   0    0    0  0% 0 407253 136047 94%
c i  0.10 70 14 0   0   28   20 10% 3 407253 135970 94%
c i  0.10 70 14 0   0   29   20 11% 3 407253 135964 94%
c i  0.10 70 14 0   0   30   20 11% 3 407253 135887 94%
c i  0.13 71 76 0   0  335  298 19% 5 407253 135881 94%
c i  0.13 71 78 0   0  341  303 19% 5 407253 135875 94%
c i  0.14 71 83 0   4  418  365 20% 5 407253 135604 94%
c i  0.14 71 81 0   4  563  493 20% 5 407253 135574 94%
c i  0.15 71 81 0   4  564  493 20% 5 407253 135570 94%
c }  0.18 71 83 0  13 1001  866 22% 4 407253 135570 94%
c [  0.18 71  0 0  13 1001  866  0% 0 407253 135570 94%
c O  0.19 71 656 0  13 1002  867 64% 2 407253 135570 94%
c i  0.30 72 587 0  13 1663 1462 56% 6 407253 135569 94%
c i  0.36 72 564 0  13 2008 1776 53% 6 407253 135568 94%
c i  0.37 72 564 0  13 2014 1781 53% 6 407253 135567 94%
c i  0.40 72 474 0  14 2282 2021 49% 5 407253 135566 94%
c i  0.40 72 451 0  14 2350 2079 47% 5 407253 135562 94%
c i  0.40 72 449 0  14 2356 2084 47% 5 407253 135561 94%
c i  0.44 72 340 0  14 2833 2511 39% 5 407253 135560 94%
c 
c  seconds   reductions  redundant  irredundant
c         MB     restarts       trail       variables
c           level   conflicts       glue          remaining
c 
c i  0.44 72 339 0  14 2839 2516 39% 5 407253 135559 94%
c i  0.44 72 327 0  14 2915 2583 38% 5 407253 135558 94%
c i  0.45 72 317 0  14 2978 2641 37% 5 407253 135557 94%
c i  0.45 72 312 0  14 3007 2666 37% 5 407253 135556 94%
c ]  0.45 72 312 0  14 3007 2666 37% 5 407253 135556 94%
c {  0.45 72 83 0  14 3007 2666 22% 4 407253 135556 94%
c F  0.45 72 83 0  14 3008 2666 22% 4 407253 135556 94%
c i  0.45 72 83 0  14 3008 2666 22% 4 407253 135552 94%
c i  0.45 72 80 0  16 3056 2710 21% 4 407253 135548 94%
c i  0.49 72 64 0  48 3525 3116 19% 4 407253 135544 94%
c i  0.50 72 64 0  52 3579 3166 19% 4 407253 135543 94%
c i  0.53 72 59 0  70 3826 3387 18% 4 407253 135542 94%
c i  0.53 72 59 0  74 3856 3415 18% 4 407253 135538 94%
c i  0.54 72 57 0  76 3931 3478 18% 4 407253 135535 94%
c i  0.54 72 57 0  76 3935 3480 18% 4 407253 135534 94%
c i  0.55 72 56 0  79 4011 3538 18% 4 407253 135529 94%
c i  0.55 72 56 0  83 4024 3547 18% 4 407253 135528 94%
c i  0.55 72 56 0  87 4041 3563 18% 4 407253 135524 94%
c i  0.56 72 54 0  94 4194 3704 18% 4 407253 135523 94%
c i  0.56 72 54 0  94 4213 3719 18% 4 407253 135519 94%
c 
c  seconds  reductions  redundant  irredundant
c         MB    restarts       trail       variables
c          level   conflicts       glue          remaining
c 
c i  0.59 72 51 0 125 4495 3983 17% 4 407253 135515 94%
c i  0.59 72 51 0 126 4498 3985 17% 4 407253 135511 94%
c i  0.59 72 51 0 130 4515 4001 17% 4 407253 135510 94%
c i  0.59 72 51 0 130 4545 4023 17% 4 407253 135509 94%
c i  0.60 72 50 0 134 4621 4089 17% 4 407253 135508 94%
c i  0.60 72 50 0 138 4634 4100 17% 4 407253 135504 94%
c i  0.61 72 49 0 158 4710 4169 17% 4 407253 135501 94%
c i  0.62 72 47 0 161 4849 4293 17% 4 407253 135452 94%
c i  0.65 72 46 0 174 5168 4586 17% 4 407253 135448 94%
c i  0.66 72 45 0 185 5214 4627 17% 4 407253 135444 94%
c i  0.66 72 45 0 187 5222 4634 17% 4 407253 135440 94%
c i  0.69 72 44 0 225 5405 4796 17% 4 407253 135436 94%
c i  0.74 72 42 0 257 5974 5292 17% 4 407253 135435 94%
c #  0.75 72 42 0 259 6009 5322 17% 4 407253 135435 94%
c i  0.75 72 42 0 260 6039 5350 17% 4 407253 135429 94%
c i  0.76 72 42 0 263 6109 5415 17% 4 407253 135425 94%
c i  0.76 72 42 0 264 6153 5452 17% 4 407253 135421 94%
c i  0.76 72 42 0 264 6169 5466 17% 4 407253 135419 94%
c }  0.88 73 39 0 334 7008 6227 17% 4 407253 135419 94%
c [  0.88 73 312 0 334 7008 6227 37% 5 407253 135419 94%
c 
c  seconds   reductions  redundant  irredundant
c         MB     restarts       trail       variables
c           level   conflicts       glue          remaining
c 
c i  0.90 73 300 0 334 7102 6310 36% 6 407253 135418 94%
c i  0.91 73 293 0 335 7155 6350 36% 6 407253 135414 94%
c i  0.97 73 251 0 335 7563 6738 33% 6 407253 135172 93%
c i  0.97 73 247 0 335 7604 6775 33% 6 407253 135061 93%
c i  0.99 73 239 0 335 7692 6849 33% 6 407253 135056 93%
c i  1.09 73 200 0 335 8281 7343 30% 6 407253 135048 93%
c i  1.10 73 194 0 335 8402 7441 29% 6 407253 135047 93%
c i  1.30 73 157 0 336 9356 8223 26% 7 407253 135046 93%
c i  1.30 73 156 0 336 9369 8235 26% 7 407253 135045 93%
c i  1.41 73 141 0 336 9909 8638 25% 8 407253 135041 93%
c ]  1.41 73 140 0 336 9916 8641 25% 8 407253 129284 89%
c 0  1.41 73 140 0 336 9916 8641 25% 8 407253 129284 89%
c 
c --- [ result ] -------------------------------------------------------------
c 
s UNSATISFIABLE
c 
c --- [ run-time profiling ] -------------------------------------------------
c 
c process time taken by individual solving procedures
c (percentage relative to process time for solving)
c 
c         1.35   99.99% search
c         0.80   59.51% stable
c         0.52   38.57% unstable
c         0.06    4.46% parse
c         0.03    1.90% lucky
c         0.00    0.00% simplify
c   =================================
c         1.35   95.69% solve
c 
c last line shows process time for solving
c (percentage relative to total process time)
c 
c --- [ statistics ] ---------------------------------------------------------
c 
c chronological:              4101        41.36 %  of conflicts
c conflicts:                  9916      7349.00    per second
c decisions:                 27322     20249.03    per second
c fixed:                     15470        10.69 %  of all variables
c learned:                    9423        95.03 %  per conflict
c learned_lits:             233078       100.00 %  learned literals
c minimized:                     0         0.00 %  learned literals
c shrunken:                  45065        19.33 %  learned literals
c minishrunken:              41674        17.88 %  learned literals
c otfs:                        118         1.19 %  of conflict
c propagations:           26369859        19.54 M  per second
c rephased:                      3      3305.33    interval
c restarts:                    336        29.51    interval
c stabilizing:                   2        49.56 %  of conflicts
c subsumed:                    722         0.17 %  of all clauses
c strengthened:                117         0.03 %  of all clauses
c 
c seconds are measured in process time for solving
c 
c --- [ resources ] ----------------------------------------------------------
c 
c total process time since initialization:         1.41    seconds
c total real time since initialization:            1.43    seconds
c maximum resident set size of process:           70.92    MB
c 
c --- [ shutting down ] ------------------------------------------------------
c 
c exit 20
